\ENCODING=ISO-8859-1
\Problem name: ilog.cplex

Maximize
 obj: CmaxLower#26
Subject To
 Constraint2_2_0,0#0:   - Yhk_2,1#0 - 62 Zh_2#1 + Yhk_0,0#2 >= 62
 Constraint2_2_1,0#1:   - Yhk_2,1#0 - 62 Zh_2#1 + Yhk_0,0#2 - Yhk_3,1#4
                        + Yhk_1,0#6 + 87 Zh_1#7 >= -25
 Constraint2_2_2,0#2:   - Yhk_2,1#0 - 62 Zh_2#1 + Yhk_0,0#2 - Yhk_3,1#4
                        + Yhk_1,0#6 + 87 Zh_1#7 - Yhk_4,1#8 - 3 Zh_4#9
                        + Yhk_2,0#10 >= -22
 Constraint2_2_3,0#3:   - Yhk_2,1#0 - 62 Zh_2#1 + Yhk_0,0#2 - Yhk_3,1#4
                        + Yhk_1,0#6 + 87 Zh_1#7 - Yhk_4,1#8 - 3 Zh_4#9
                        + Yhk_2,0#10 - Yhk_5,1#11 - 37 Zh_5#12 + Yhk_3,0#13
                        >= 15
 Constraint2_2_4,0#4:   - Yhk_2,1#0 - 62 Zh_2#1 + Yhk_0,0#2 - Yhk_3,1#4
                        + Yhk_1,0#6 + 87 Zh_1#7 - Yhk_4,1#8 - 3 Zh_4#9
                        + Yhk_2,0#10 - Yhk_5,1#11 - 37 Zh_5#12 + Yhk_3,0#13
                        - Yhk_6,1#14 - 58 Zh_6#15 + Yhk_4,0#16 >= 73
 Constraint2_2_5,0#5:   - Yhk_2,1#0 - 62 Zh_2#1 + Yhk_0,0#2 - Yhk_3,1#4
                        + Yhk_1,0#6 + 87 Zh_1#7 - Yhk_4,1#8 - 3 Zh_4#9
                        + Yhk_2,0#10 - Yhk_5,1#11 - 37 Zh_5#12 + Yhk_3,0#13
                        - Yhk_6,1#14 - 58 Zh_6#15 + Yhk_4,0#16 - Yhk_7,1#17
                        + Yhk_5,0#19 >= 73
 Constraint2_2_6,0#6:   - Yhk_2,1#0 - 62 Zh_2#1 + Yhk_0,0#2 - Yhk_3,1#4
                        + Yhk_1,0#6 + 87 Zh_1#7 - Yhk_4,1#8 - 3 Zh_4#9
                        + Yhk_2,0#10 - Yhk_5,1#11 - 37 Zh_5#12 + Yhk_3,0#13
                        - Yhk_6,1#14 - 58 Zh_6#15 + Yhk_4,0#16 - Yhk_7,1#17
                        + Yhk_5,0#19 - Yhk_8,1#20 + Yhk_6,0#22 >= 73
 Constraint2_2_7,0#7:   - Yhk_2,1#0 - 62 Zh_2#1 + Yhk_0,0#2 - Yhk_3,1#4
                        + Yhk_1,0#6 + 87 Zh_1#7 - Yhk_4,1#8 - 3 Zh_4#9
                        + Yhk_2,0#10 - Yhk_5,1#11 - 37 Zh_5#12 + Yhk_3,0#13
                        - Yhk_6,1#14 - 58 Zh_6#15 + Yhk_4,0#16 - Yhk_7,1#17
                        + Yhk_5,0#19 - Yhk_8,1#20 + Yhk_6,0#22 - Yhk_9,1#23
                        - 19 Zh_9#24 + Yhk_7,0#25 >= 92
 Constraint2_3_0#8:     Yhk_0,0#2 + Yhk_1,0#6 + 87 Zh_1#7 + Yhk_2,0#10
                        + Yhk_3,0#13 + Yhk_4,0#16 + Yhk_5,0#19 + Yhk_6,0#22
                        + Yhk_7,0#25 - CmaxLower#26 + Yhk_9,0#27 + Yhk_8,0#28
                        <= -94
 Constraint2_3_1#9:     Yhk_2,1#0 + 62 Zh_2#1 + Yhk_3,1#4 + Yhk_4,1#8
                        + 3 Zh_4#9 + Yhk_5,1#11 + 37 Zh_5#12 + Yhk_6,1#14
                        + 58 Zh_6#15 + Yhk_7,1#17 + Yhk_8,1#20 + Yhk_9,1#23
                        + 19 Zh_9#24 - CmaxLower#26 + Yhk_1,1#29 + Yhk_0,1#30
                        <= -186
 Constraint2_6#10:      Zh_2#1 + Zh_0#3 + Zh_3#5 + Zh_1#7 + Zh_4#9 + Zh_5#12
                        + Zh_6#15 + Zh_7#18 + Zh_8#21 + Zh_9#24 <= 1
 Constraint2_9_2,0#11:  - Miuk_0#31 + Niujk_7,0#32 + Niujk_6,0#33
                        + Niujk_5,0#34 + Niujk_4,0#35 + Niujk_3,0#36
                        + Niujk_2,0#37 <= 0
 Constraint2_9_3,0#12:  - Miuk_0#31 + Niujk_7,0#32 + Niujk_6,0#33
                        + Niujk_5,0#34 + Niujk_4,0#35 + Niujk_3,0#36 <= 0
 Constraint2_9_4,0#13:  - Miuk_0#31 + Niujk_7,0#32 + Niujk_6,0#33
                        + Niujk_5,0#34 + Niujk_4,0#35 <= 0
 Constraint2_9_5,0#14:  - Miuk_0#31 + Niujk_7,0#32 + Niujk_6,0#33
                        + Niujk_5,0#34 <= 0
 Constraint2_9_6,0#15:  - Miuk_0#31 + Niujk_7,0#32 + Niujk_6,0#33 <= 0
 Constraint2_9_7,0#16:  - Miuk_0#31 + Niujk_7,0#32 <= 0
 Constraint2_9_0,0#17:  - Miuk_0#31 + Niujk_7,0#32 + Niujk_6,0#33
                        + Niujk_5,0#34 + Niujk_4,0#35 + Niujk_3,0#36
                        + Niujk_2,0#37 + Niujk_1,0#38 + Niujk_0,0#39 <= 0
 Constraint2_9_1,0#18:  - Miuk_0#31 + Niujk_7,0#32 + Niujk_6,0#33
                        + Niujk_5,0#34 + Niujk_4,0#35 + Niujk_3,0#36
                        + Niujk_2,0#37 + Niujk_1,0#38 <= 0
 Constraint2_10_8,1#19: - Niujk_7,0#32 - Niujk_6,0#33 - Miuk_1#40 <= 0
 Constraint2_10_9,1#20: - Niujk_7,0#32 - Miuk_1#40 <= 0
 Constraint2_10_2,1#21: - Niujk_7,0#32 - Niujk_6,0#33 - Niujk_5,0#34
                        - Niujk_4,0#35 - Niujk_3,0#36 - Niujk_2,0#37
                        - Niujk_1,0#38 - Niujk_0,0#39 - Miuk_1#40 <= 0
 Constraint2_10_3,1#22: - Niujk_7,0#32 - Niujk_6,0#33 - Niujk_5,0#34
                        - Niujk_4,0#35 - Niujk_3,0#36 - Niujk_2,0#37
                        - Niujk_1,0#38 - Miuk_1#40 <= 0
 Constraint2_10_4,1#23: - Niujk_7,0#32 - Niujk_6,0#33 - Niujk_5,0#34
                        - Niujk_4,0#35 - Niujk_3,0#36 - Niujk_2,0#37
                        - Miuk_1#40 <= 0
 Constraint2_10_5,1#24: - Niujk_7,0#32 - Niujk_6,0#33 - Niujk_5,0#34
                        - Niujk_4,0#35 - Niujk_3,0#36 - Miuk_1#40 <= 0
 Constraint2_10_6,1#25: - Niujk_7,0#32 - Niujk_6,0#33 - Niujk_5,0#34
                        - Niujk_4,0#35 - Miuk_1#40 <= 0
 Constraint2_10_7,1#26: - Niujk_7,0#32 - Niujk_6,0#33 - Niujk_5,0#34
                        - Miuk_1#40 <= 0
 Constraint2_11_#27:    Miuk_0#31 + Miuk_1#40 <= 1
 Constraint2_14_0,0#28: - Yhk_2,1#0 - 62 Zh_2#1 + Yhk_0,0#2
                        - 3000 Gammajk_0,0#41 <= 62
 Constraint2_14_1,0#29: - Yhk_2,1#0 - 62 Zh_2#1 + Yhk_0,0#2 - Yhk_3,1#4
                        + Yhk_1,0#6 + 87 Zh_1#7 - 3000 Gammajk_1,0#42 <= -25
 Constraint2_14_2,0#30: - Yhk_2,1#0 - 62 Zh_2#1 + Yhk_0,0#2 - Yhk_3,1#4
                        + Yhk_1,0#6 + 87 Zh_1#7 - Yhk_4,1#8 - 3 Zh_4#9
                        + Yhk_2,0#10 - 3000 Gammajk_2,0#43 <= -22
 Constraint2_14_3,0#31: - Yhk_2,1#0 - 62 Zh_2#1 + Yhk_0,0#2 - Yhk_3,1#4
                        + Yhk_1,0#6 + 87 Zh_1#7 - Yhk_4,1#8 - 3 Zh_4#9
                        + Yhk_2,0#10 - Yhk_5,1#11 - 37 Zh_5#12 + Yhk_3,0#13
                        - 3000 Gammajk_3,0#44 <= 15
 Constraint2_14_4,0#32: - Yhk_2,1#0 - 62 Zh_2#1 + Yhk_0,0#2 - Yhk_3,1#4
                        + Yhk_1,0#6 + 87 Zh_1#7 - Yhk_4,1#8 - 3 Zh_4#9
                        + Yhk_2,0#10 - Yhk_5,1#11 - 37 Zh_5#12 + Yhk_3,0#13
                        - Yhk_6,1#14 - 58 Zh_6#15 + Yhk_4,0#16
                        - 3000 Gammajk_4,0#45 <= 73
 Constraint2_14_5,0#33: - Yhk_2,1#0 - 62 Zh_2#1 + Yhk_0,0#2 - Yhk_3,1#4
                        + Yhk_1,0#6 + 87 Zh_1#7 - Yhk_4,1#8 - 3 Zh_4#9
                        + Yhk_2,0#10 - Yhk_5,1#11 - 37 Zh_5#12 + Yhk_3,0#13
                        - Yhk_6,1#14 - 58 Zh_6#15 + Yhk_4,0#16 - Yhk_7,1#17
                        + Yhk_5,0#19 - 3000 Gammajk_5,0#46 <= 73
 Constraint2_14_6,0#34: - Yhk_2,1#0 - 62 Zh_2#1 + Yhk_0,0#2 - Yhk_3,1#4
                        + Yhk_1,0#6 + 87 Zh_1#7 - Yhk_4,1#8 - 3 Zh_4#9
                        + Yhk_2,0#10 - Yhk_5,1#11 - 37 Zh_5#12 + Yhk_3,0#13
                        - Yhk_6,1#14 - 58 Zh_6#15 + Yhk_4,0#16 - Yhk_7,1#17
                        + Yhk_5,0#19 - Yhk_8,1#20 + Yhk_6,0#22
                        - 3000 Gammajk_6,0#47 <= 73
 Constraint2_14_7,0#35: - Yhk_2,1#0 - 62 Zh_2#1 + Yhk_0,0#2 - Yhk_3,1#4
                        + Yhk_1,0#6 + 87 Zh_1#7 - Yhk_4,1#8 - 3 Zh_4#9
                        + Yhk_2,0#10 - Yhk_5,1#11 - 37 Zh_5#12 + Yhk_3,0#13
                        - Yhk_6,1#14 - 58 Zh_6#15 + Yhk_4,0#16 - Yhk_7,1#17
                        + Yhk_5,0#19 - Yhk_8,1#20 + Yhk_6,0#22 - Yhk_9,1#23
                        - 19 Zh_9#24 + Yhk_7,0#25 - 3000 Gammajk_7,0#48 <= 92
 Constraint2_15_0,0#36: Niujk_0,0#39 + 3000 Gammajk_0,0#41 <= 3000
 Constraint2_15_1,0#37: Niujk_1,0#38 + 3000 Gammajk_1,0#42 <= 3000
 Constraint2_15_2,0#38: Niujk_2,0#37 + 3000 Gammajk_2,0#43 <= 3000
 Constraint2_15_3,0#39: Niujk_3,0#36 + 3000 Gammajk_3,0#44 <= 3000
 Constraint2_15_4,0#40: Niujk_4,0#35 + 3000 Gammajk_4,0#45 <= 3000
 Constraint2_15_5,0#41: Niujk_5,0#34 + 3000 Gammajk_5,0#46 <= 3000
 Constraint2_15_6,0#42: Niujk_6,0#33 + 3000 Gammajk_6,0#47 <= 3000
 Constraint2_15_7,0#43: Niujk_7,0#32 + 3000 Gammajk_7,0#48 <= 3000
 Constraint2_16_0#44:   - Yhk_0,0#2 - Yhk_1,0#6 - 87 Zh_1#7 - Yhk_2,0#10
                        - Yhk_3,0#13 - Yhk_4,0#16 - Yhk_5,0#19 - Yhk_6,0#22
                        - Yhk_7,0#25 + CmaxLower#26 - Yhk_9,0#27 - Yhk_8,0#28
                        - 3000 _Epsilonk_0#49 <= 94
 Constraint2_16_1#45:   - Yhk_2,1#0 - 62 Zh_2#1 - Yhk_3,1#4 - Yhk_4,1#8
                        - 3 Zh_4#9 - Yhk_5,1#11 - 37 Zh_5#12 - Yhk_6,1#14
                        - 58 Zh_6#15 - Yhk_7,1#17 - Yhk_8,1#20 - Yhk_9,1#23
                        - 19 Zh_9#24 + CmaxLower#26 - Yhk_1,1#29 - Yhk_0,1#30
                        - 3000 _Epsilonk_1#50 <= 186
 Constraint2_17_0#46:   Miuk_0#31 + 3000 _Epsilonk_0#49 <= 3000
 Constraint2_17_1#47:   Miuk_1#40 + 3000 _Epsilonk_1#50 <= 3000
 Constraint2_19_2,0#48: Miuk_0#31 - Niujk_7,0#32 - Niujk_6,0#33 - Niujk_5,0#34
                        - Niujk_4,0#35 - Niujk_3,0#36 - Niujk_2,0#37
                        - 3000 Zetahk_2,0#51 <= 0
 Constraint2_19_3,0#49: Miuk_0#31 - Niujk_7,0#32 - Niujk_6,0#33 - Niujk_5,0#34
                        - Niujk_4,0#35 - Niujk_3,0#36 - 3000 Zetahk_3,0#52 <= 0
 Constraint2_19_4,0#50: Miuk_0#31 - Niujk_7,0#32 - Niujk_6,0#33 - Niujk_5,0#34
                        - Niujk_4,0#35 - 3000 Zetahk_4,0#53 <= 0
 Constraint2_19_5,0#51: Miuk_0#31 - Niujk_7,0#32 - Niujk_6,0#33 - Niujk_5,0#34
                        - 3000 Zetahk_5,0#54 <= 0
 Constraint2_19_6,0#52: Miuk_0#31 - Niujk_7,0#32 - Niujk_6,0#33
                        - 3000 Zetahk_6,0#55 <= 0
 Constraint2_19_7,0#53: Miuk_0#31 - Niujk_7,0#32 - 3000 Zetahk_7,0#56 <= 0
 Constraint2_19_0,0#54: Miuk_0#31 - Niujk_7,0#32 - Niujk_6,0#33 - Niujk_5,0#34
                        - Niujk_4,0#35 - Niujk_3,0#36 - Niujk_2,0#37
                        - Niujk_1,0#38 - Niujk_0,0#39 - 3000 Zetahk_0,0#57 <= 0
 Constraint2_19_1,0#55: Miuk_0#31 - Niujk_7,0#32 - Niujk_6,0#33 - Niujk_5,0#34
                        - Niujk_4,0#35 - Niujk_3,0#36 - Niujk_2,0#37
                        - Niujk_1,0#38 - 3000 Zetahk_1,0#58 <= 0
 Constraint2_20_8,1#56: Niujk_7,0#32 + Niujk_6,0#33 + Miuk_1#40
                        - 3000 Zetahk_8,1#59 <= 0
 Constraint2_20_9,1#57: Niujk_7,0#32 + Miuk_1#40 - 3000 Zetahk_9,1#60 <= 0
 Constraint2_20_2,1#58: Niujk_7,0#32 + Niujk_6,0#33 + Niujk_5,0#34
                        + Niujk_4,0#35 + Niujk_3,0#36 + Niujk_2,0#37
                        + Niujk_1,0#38 + Niujk_0,0#39 + Miuk_1#40
                        - 3000 Zetahk_2,1#61 <= 0
 Constraint2_20_3,1#59: Niujk_7,0#32 + Niujk_6,0#33 + Niujk_5,0#34
                        + Niujk_4,0#35 + Niujk_3,0#36 + Niujk_2,0#37
                        + Niujk_1,0#38 + Miuk_1#40 - 3000 Zetahk_3,1#62 <= 0
 Constraint2_20_4,1#60: Niujk_7,0#32 + Niujk_6,0#33 + Niujk_5,0#34
                        + Niujk_4,0#35 + Niujk_3,0#36 + Niujk_2,0#37
                        + Miuk_1#40 - 3000 Zetahk_4,1#63 <= 0
 Constraint2_20_5,1#61: Niujk_7,0#32 + Niujk_6,0#33 + Niujk_5,0#34
                        + Niujk_4,0#35 + Niujk_3,0#36 + Miuk_1#40
                        - 3000 Zetahk_5,1#64 <= 0
 Constraint2_20_6,1#62: Niujk_7,0#32 + Niujk_6,0#33 + Niujk_5,0#34
                        + Niujk_4,0#35 + Miuk_1#40 - 3000 Zetahk_6,1#65 <= 0
 Constraint2_20_7,1#63: Niujk_7,0#32 + Niujk_6,0#33 + Niujk_5,0#34 + Miuk_1#40
                        - 3000 Zetahk_7,1#66 <= 0
 Constraint2_21_0#64:   Miuk_1#40 - 3000 Zetahk_0,1#67 <= 0
 Constraint2_21_1#65:   Miuk_1#40 - 3000 Zetahk_1,1#68 <= 0
 Constraint2_21_8#66:   Miuk_0#31 - 3000 Zetahk_8,0#69 <= 0
 Constraint2_21_9#67:   Miuk_0#31 - 3000 Zetahk_9,0#70 <= 0
 Constraint2_22_0,0#68: Yhk_0,0#2 + 3000 Zetahk_0,0#57 <= 3000
 Constraint2_22_0,1#69: Yhk_0,1#30 + 3000 Zetahk_0,1#67 <= 3000
 Constraint2_22_1,0#70: Yhk_1,0#6 + 3000 Zetahk_1,0#58 <= 3000
 Constraint2_22_1,1#71: Yhk_1,1#29 + 3000 Zetahk_1,1#68 <= 3000
 Constraint2_22_2,0#72: Yhk_2,0#10 + 3000 Zetahk_2,0#51 <= 3000
 Constraint2_22_2,1#73: Yhk_2,1#0 + 3000 Zetahk_2,1#61 <= 3000
 Constraint2_22_3,0#74: Yhk_3,0#13 + 3000 Zetahk_3,0#52 <= 3000
 Constraint2_22_3,1#75: Yhk_3,1#4 + 3000 Zetahk_3,1#62 <= 3000
 Constraint2_22_4,0#76: Yhk_4,0#16 + 3000 Zetahk_4,0#53 <= 3000
 Constraint2_22_4,1#77: Yhk_4,1#8 + 3000 Zetahk_4,1#63 <= 3000
 Constraint2_22_5,0#78: Yhk_5,0#19 + 3000 Zetahk_5,0#54 <= 3000
 Constraint2_22_5,1#79: Yhk_5,1#11 + 3000 Zetahk_5,1#64 <= 3000
 Constraint2_22_6,0#80: Yhk_6,0#22 + 3000 Zetahk_6,0#55 <= 3000
 Constraint2_22_6,1#81: Yhk_6,1#14 + 3000 Zetahk_6,1#65 <= 3000
 Constraint2_22_7,0#82: Yhk_7,0#25 + 3000 Zetahk_7,0#56 <= 3000
 Constraint2_22_7,1#83: Yhk_7,1#17 + 3000 Zetahk_7,1#66 <= 3000
 Constraint2_22_8,0#84: Yhk_8,0#28 + 3000 Zetahk_8,0#69 <= 3000
 Constraint2_22_8,1#85: Yhk_8,1#20 + 3000 Zetahk_8,1#59 <= 3000
 Constraint2_22_9,0#86: Yhk_9,0#27 + 3000 Zetahk_9,0#70 <= 3000
 Constraint2_22_9,1#87: Yhk_9,1#23 + 3000 Zetahk_9,1#60 <= 3000
 Constraint2_23#88:     - Miuk_0#31 - Miuk_1#40 - 3000 _Eta#71 <= -1
 Constraint2_24#89:     CmaxLower#26 + 3000 _Eta#71 <= 3000
Bounds
 0 <= Zh_2#1 <= 1
 0 <= Zh_0#3 <= 1
 0 <= Zh_3#5 <= 1
 0 <= Zh_1#7 <= 1
 0 <= Zh_4#9 <= 1
 0 <= Zh_5#12 <= 1
 0 <= Zh_6#15 <= 1
 0 <= Zh_7#18 <= 1
 0 <= Zh_8#21 <= 1
 0 <= Zh_9#24 <= 1
 0 <= Gammajk_0,0#41 <= 1
 0 <= Gammajk_1,0#42 <= 1
 0 <= Gammajk_2,0#43 <= 1
 0 <= Gammajk_3,0#44 <= 1
 0 <= Gammajk_4,0#45 <= 1
 0 <= Gammajk_5,0#46 <= 1
 0 <= Gammajk_6,0#47 <= 1
 0 <= Gammajk_7,0#48 <= 1
 0 <= _Epsilonk_0#49 <= 1
 0 <= _Epsilonk_1#50 <= 1
 0 <= Zetahk_2,0#51 <= 1
 0 <= Zetahk_3,0#52 <= 1
 0 <= Zetahk_4,0#53 <= 1
 0 <= Zetahk_5,0#54 <= 1
 0 <= Zetahk_6,0#55 <= 1
 0 <= Zetahk_7,0#56 <= 1
 0 <= Zetahk_0,0#57 <= 1
 0 <= Zetahk_1,0#58 <= 1
 0 <= Zetahk_8,1#59 <= 1
 0 <= Zetahk_9,1#60 <= 1
 0 <= Zetahk_2,1#61 <= 1
 0 <= Zetahk_3,1#62 <= 1
 0 <= Zetahk_4,1#63 <= 1
 0 <= Zetahk_5,1#64 <= 1
 0 <= Zetahk_6,1#65 <= 1
 0 <= Zetahk_7,1#66 <= 1
 0 <= Zetahk_0,1#67 <= 1
 0 <= Zetahk_1,1#68 <= 1
 0 <= Zetahk_8,0#69 <= 1
 0 <= Zetahk_9,0#70 <= 1
 0 <= _Eta#71 <= 1
Generals
 Gammajk_0,0#41  Gammajk_1,0#42  Gammajk_2,0#43  Gammajk_3,0#44 
 Gammajk_4,0#45  Gammajk_5,0#46  Gammajk_6,0#47  Gammajk_7,0#48 
 _Epsilonk_0#49  _Epsilonk_1#50  Zetahk_2,0#51  Zetahk_3,0#52  Zetahk_4,0#53 
 Zetahk_5,0#54  Zetahk_6,0#55  Zetahk_7,0#56  Zetahk_0,0#57  Zetahk_1,0#58 
 Zetahk_8,1#59  Zetahk_9,1#60  Zetahk_2,1#61  Zetahk_3,1#62  Zetahk_4,1#63 
 Zetahk_5,1#64  Zetahk_6,1#65  Zetahk_7,1#66  Zetahk_0,1#67  Zetahk_1,1#68 
 Zetahk_8,0#69  Zetahk_9,0#70  _Eta#71 
End
